import cct3

set {
basis 3-21G
ints_tolerance 1e-11
}

molecule dimer {
units bohr
h -2.514213562373  -1.000000000000   0.000000000000
h -2.514213562373   1.000000000000   0.000000000000
h  2.514213562373  -1.000000000000   0.000000000000
h  2.514213562373   1.000000000000   0.000000000000
--
h -1.000000000000  -2.414213562373   0.000000000000
h -1.000000000000   2.414213562373   0.000000000000
h  1.000000000000  -2.414213562373   0.000000000000
h  1.000000000000   2.414213562373   0.000000000000
}


energy("cr-cc(2,3)",bsse_type='cp')
